(set-logic QF_S)
(declare-fun _var_0xINPUT_103028_() String)
(declare-fun __woorpje_diseq_pref0_() String)
(declare-fun __woorpje_diseq_suf_l0_() String)
(declare-fun __woorpje_diseq_suf_r0_() String)
(assert (=(str.++  "Jgt73Q8iHP" "")(str.++ __woorpje_diseq_pref0_  "Q" __woorpje_diseq_suf_l0_  "")) )
(assert (=(str.++ _var_0xINPUT_103028_  "")(str.++ __woorpje_diseq_pref0_  "P" __woorpje_diseq_suf_r0_  "")) )
(check-sat)
